NAME          DCAP_2_4_3_500_SS491
ROWS
 N  OBJ
 L  CON1
 L  CON2
 L  CON3
 L  CON4
 L  CON5
 L  CON6
 L  CON7
 L  CON8
 L  CON9
 L  CON10
 L  CON11
 L  CON12
 E  CON13
 E  CON14
 E  CON15
 E  CON16
 E  CON17
 E  CON18
 E  CON19
 E  CON20
 E  CON21
 E  CON22
 E  CON23
 E  CON24
COLUMNS
    x[1,1]    OBJ       6.180167      CON1      1.000000    
    x[1,1]    CON7      -1.000000     CON8      -1.000000   
    x[1,1]    CON9      -1.000000   
    x[1,2]    OBJ       6.563535      CON2      1.000000    
    x[1,2]    CON8      -1.000000     CON9      -1.000000   
    x[1,3]    OBJ       7.443064      CON3      1.000000    
    x[1,3]    CON9      -1.000000   
    x[2,1]    OBJ       6.732585      CON4      1.000000    
    x[2,1]    CON10     -1.000000     CON11     -1.000000   
    x[2,1]    CON12     -1.000000   
    x[2,2]    OBJ       5.039546      CON5      1.000000    
    x[2,2]    CON11     -1.000000     CON12     -1.000000   
    x[2,3]    OBJ       6.054841      CON6      1.000000    
    x[2,3]    CON12     -1.000000   
    MARKER    'MARKER'                'INTORG'
    u[1,1]    OBJ       48.076654     CON1      -1.000000   
    u[1,2]    OBJ       20.066487     CON2      -1.000000   
    u[1,3]    OBJ       32.230043     CON3      -1.000000   
    u[2,1]    OBJ       49.996186     CON4      -1.000000   
    u[2,2]    OBJ       49.466655     CON5      -1.000000   
    u[2,3]    OBJ       27.484319     CON6      -1.000000   
    y[1,1,1]  OBJ       8.340887      CON7      1.483165    
    y[1,1,1]  CON13     1.000000    
    y[1,1,2]  OBJ       7.464858      CON8      0.901317    
    y[1,1,2]  CON14     1.000000    
    y[1,1,3]  OBJ       5.489855      CON9      1.397620    
    y[1,1,3]  CON15     1.000000    
    y[1,2,1]  OBJ       8.817480      CON7      0.518109    
    y[1,2,1]  CON16     1.000000    
    y[1,2,2]  OBJ       5.983557      CON8      1.199320    
    y[1,2,2]  CON17     1.000000    
    y[1,2,3]  OBJ       6.329965      CON9      1.363023    
    y[1,2,3]  CON18     1.000000    
    y[1,3,1]  OBJ       7.659737      CON7      0.864291    
    y[1,3,1]  CON19     1.000000    
    y[1,3,2]  OBJ       6.337608      CON8      1.499524    
    y[1,3,2]  CON20     1.000000    
    y[1,3,3]  OBJ       8.386342      CON9      0.830966    
    y[1,3,3]  CON21     1.000000    
    y[1,4,1]  OBJ       5.091679      CON7      1.491258    
    y[1,4,1]  CON22     1.000000    
    y[1,4,2]  OBJ       8.439656      CON8      1.486991    
    y[1,4,2]  CON23     1.000000    
    y[1,4,3]  OBJ       9.968079      CON9      0.760620    
    y[1,4,3]  CON24     1.000000    
    y[2,1,1]  OBJ       9.686278      CON10     1.483165    
    y[2,1,1]  CON13     1.000000    
    y[2,1,2]  OBJ       7.598349      CON11     0.901317    
    y[2,1,2]  CON14     1.000000    
    y[2,1,3]  OBJ       5.532871      CON12     1.397620    
    y[2,1,3]  CON15     1.000000    
    y[2,2,1]  OBJ       7.433044      CON10     0.518109    
    y[2,2,1]  CON16     1.000000    
    y[2,2,2]  OBJ       6.527481      CON11     1.199320    
    y[2,2,2]  CON17     1.000000    
    y[2,2,3]  OBJ       6.552018      CON12     1.363023    
    y[2,2,3]  CON18     1.000000    
    y[2,3,1]  OBJ       6.873557      CON10     0.864291    
    y[2,3,1]  CON19     1.000000    
    y[2,3,2]  OBJ       9.199617      CON11     1.499524    
    y[2,3,2]  CON20     1.000000    
    y[2,3,3]  OBJ       9.129877      CON12     0.830966    
    y[2,3,3]  CON21     1.000000    
    y[2,4,1]  OBJ       5.823871      CON10     1.491258    
    y[2,4,1]  CON22     1.000000    
    y[2,4,2]  OBJ       7.107582      CON11     1.486991    
    y[2,4,2]  CON23     1.000000    
    y[2,4,3]  OBJ       6.477564      CON12     0.760620    
    y[2,4,3]  CON24     1.000000    
    z[1,1]    OBJ       690.864781    CON13     1.000000    
    z[1,2]    OBJ       566.484684    CON14     1.000000    
    z[1,3]    OBJ       697.739762    CON15     1.000000    
    z[2,1]    OBJ       861.953197    CON16     1.000000    
    z[2,2]    OBJ       561.354312    CON17     1.000000    
    z[2,3]    OBJ       974.791763    CON18     1.000000    
    z[3,1]    OBJ       925.180591    CON19     1.000000    
    z[3,2]    OBJ       928.714510    CON20     1.000000    
    z[3,3]    OBJ       694.554163    CON21     1.000000    
    z[4,1]    OBJ       556.130136    CON22     1.000000    
    z[4,2]    OBJ       582.906522    CON23     1.000000    
    z[4,3]    OBJ       899.543472    CON24     1.000000    
    MARKER    'MARKER'                 'INTEND'
RHS
    RHS       CON1      -0.000000     CON2      -0.000000   
    RHS       CON3      -0.000000     CON4      -0.000000   
    RHS       CON5      -0.000000     CON6      -0.000000   
    RHS       CON7      -0.000000     CON8      -0.000000   
    RHS       CON9      -0.000000     CON10     -0.000000   
    RHS       CON11     -0.000000     CON12     -0.000000   
    RHS       CON13     1.000000      CON14     1.000000    
    RHS       CON15     1.000000      CON16     1.000000    
    RHS       CON17     1.000000      CON18     1.000000    
    RHS       CON19     1.000000      CON20     1.000000    
    RHS       CON21     1.000000      CON22     1.000000    
    RHS       CON23     1.000000      CON24     1.000000    
BOUNDS
 BV BOUND     u[1,1]  
 BV BOUND     u[1,2]  
 BV BOUND     u[1,3]  
 BV BOUND     u[2,1]  
 BV BOUND     u[2,2]  
 BV BOUND     u[2,3]  
 BV BOUND     y[1,1,1]
 BV BOUND     y[1,1,2]
 BV BOUND     y[1,1,3]
 BV BOUND     y[1,2,1]
 BV BOUND     y[1,2,2]
 BV BOUND     y[1,2,3]
 BV BOUND     y[1,3,1]
 BV BOUND     y[1,3,2]
 BV BOUND     y[1,3,3]
 BV BOUND     y[1,4,1]
 BV BOUND     y[1,4,2]
 BV BOUND     y[1,4,3]
 BV BOUND     y[2,1,1]
 BV BOUND     y[2,1,2]
 BV BOUND     y[2,1,3]
 BV BOUND     y[2,2,1]
 BV BOUND     y[2,2,2]
 BV BOUND     y[2,2,3]
 BV BOUND     y[2,3,1]
 BV BOUND     y[2,3,2]
 BV BOUND     y[2,3,3]
 BV BOUND     y[2,4,1]
 BV BOUND     y[2,4,2]
 BV BOUND     y[2,4,3]
 BV BOUND     z[1,1]  
 BV BOUND     z[1,2]  
 BV BOUND     z[1,3]  
 BV BOUND     z[2,1]  
 BV BOUND     z[2,2]  
 BV BOUND     z[2,3]  
 BV BOUND     z[3,1]  
 BV BOUND     z[3,2]  
 BV BOUND     z[3,3]  
 BV BOUND     z[4,1]  
 BV BOUND     z[4,2]  
 BV BOUND     z[4,3]  
ENDATA
